(set-info :source |printed by MathSAT|)
(declare-fun |.x{835}| () Int)
(declare-fun |.x{1152}| () Int)
(declare-fun |.x{836}| () (Array Int Int))
(declare-fun |.x{1153}| () (Array Int Int))
(declare-fun |.x{837}| () (Array Int Int))
(declare-fun |.x{1154}| () (Array Int Int))
(declare-fun |.x{838}| () (Array Int (Array Int Int)))
(declare-fun |.x{1155}| () (Array Int (Array Int Int)))
(declare-fun |.x{839}| () (Array Int (Array Int Int)))
(declare-fun |.x{1156}| () (Array Int (Array Int Int)))
(declare-fun |.x{840}| () Int)
(declare-fun |.x{1157}| () Int)
(declare-fun |.x{841}| () Int)
(declare-fun |.x{1158}| () Int)
(declare-fun |.x{842}| () (Array Int Int))
(declare-fun |.x{1159}| () (Array Int Int))
(declare-fun |.x{843}| () (Array Int Int))
(declare-fun |.x{1160}| () (Array Int Int))
(declare-fun |.x{844}| () Int)
(declare-fun |.x{1161}| () Int)
(declare-fun |.x{845}| () Int)
(declare-fun |.x{1162}| () Int)
(declare-fun |.x{846}| () Int)
(declare-fun |.x{1163}| () Int)
(declare-fun |.x{876}| () Int)
(declare-fun |.x{1164}| () Int)
(declare-fun |.x{848}| () Int)
(declare-fun |.x{1165}| () Int)
(declare-fun |.x{849}| () Int)
(declare-fun |.x{1166}| () Int)
(declare-fun |.x{850}| () Int)
(declare-fun |.x{1167}| () Int)
(declare-fun |.x{851}| () Int)
(declare-fun |.x{1168}| () Int)
(declare-fun |.x{852}| () Int)
(declare-fun |.x{1169}| () Int)
(declare-fun |.x{853}| () Int)
(declare-fun |.x{1170}| () Int)
(declare-fun |.x{854}| () Int)
(declare-fun |.x{1171}| () Int)
(declare-fun |.x{855}| () Int)
(declare-fun |.x{1172}| () Int)
(declare-fun |.x{856}| () Int)
(declare-fun |.x{1173}| () Int)
(declare-fun |.x{857}| () Int)
(declare-fun |.x{1174}| () Int)
(declare-fun |.x{858}| () Int)
(declare-fun |.x{1175}| () Int)
(declare-fun |.x{888}| () Int)
(declare-fun |.x{1176}| () Int)
(declare-fun |.x{860}| () Int)
(declare-fun |.x{1177}| () Int)
(declare-fun |.x{861}| () Int)
(declare-fun |.x{1178}| () Int)
(declare-fun |.x{862}| () Int)
(declare-fun |.x{1179}| () Int)
(declare-fun |.x{863}| () Bool)
(declare-fun |.x{1122}| () Bool)
(declare-fun |.loc{4}| () Bool)
(declare-fun |.loc{7}| () Bool)
(declare-fun |.loc{5}| () Bool)
(declare-fun |.loc{8}| () Bool)
(declare-fun |.loc{6}| () Bool)
(declare-fun |.loc{9}| () Bool)
(declare-fun |.x{115}| () (Array Int Int))
(define-fun .def_68 () Bool (! |.loc{5}| :next |.loc{8}|))
(define-fun .def_81 () Bool (not .def_68))
(define-fun .def_66 () Bool (! |.loc{4}| :next |.loc{7}|))
(define-fun .def_77 () Bool (not .def_66))
(define-fun .def_470 () Bool (and .def_77 .def_81))
(define-fun .def_70 () Bool (! |.loc{6}| :next |.loc{9}|))
(define-fun .def_87 () Bool (not .def_70))
(define-fun .def_471 () Bool (and .def_87 .def_470))
(define-fun .def_28 () Int (! |.x{845}| :next |.x{1162}|))
(define-fun .def_26 () Int (! |.x{844}| :next |.x{1161}|))
(define-fun .def_464 () Bool (= .def_26 .def_28))
(define-fun .def_16 () (Array Int (Array Int Int)) (! |.x{839}| :next |.x{1156}|))
(define-fun .def_14 () (Array Int (Array Int Int)) (! |.x{838}| :next |.x{1155}|))
(define-fun .def_463 () Bool (= .def_14 .def_16))
(define-fun .def_465 () Bool (and .def_463 .def_464))
(define-fun .def_20 () Int (! |.x{841}| :next |.x{1158}|))
(define-fun .def_18 () Int (! |.x{840}| :next |.x{1157}|))
(define-fun .def_462 () Bool (= .def_18 .def_20))
(define-fun .def_466 () Bool (and .def_462 .def_465))
(define-fun .def_24 () (Array Int Int) (! |.x{843}| :next |.x{1160}|))
(define-fun .def_22 () (Array Int Int) (! |.x{842}| :next |.x{1159}|))
(define-fun .def_461 () Bool (= .def_22 .def_24))
(define-fun .def_467 () Bool (and .def_461 .def_466))
(define-fun .def_64 () Bool (! |.x{863}| :next |.x{1122}|))
(define-fun .def_460 () Bool (not .def_64))
(define-fun .def_468 () Bool (and .def_460 .def_467))
(define-fun .def_12 () (Array Int Int) (! |.x{837}| :next |.x{1154}|))
(define-fun .def_10 () (Array Int Int) (! |.x{836}| :next |.x{1153}|))
(define-fun .def_459 () Bool (= .def_10 .def_12))
(define-fun .def_469 () Bool (and .def_459 .def_468))
(define-fun .def_472 () Bool (! (and .def_469 .def_471) :init true))
(define-fun .def_456 () Bool (= .def_28 |.x{1162}|))
(define-fun .def_454 () Bool (= .def_24 |.x{1160}|))
(define-fun .def_452 () Bool (= .def_20 |.x{1158}|))
(define-fun .def_450 () Bool (= .def_16 |.x{1156}|))
(define-fun .def_8 () Int (! |.x{835}| :next |.x{1152}|))
(define-fun .def_448 () Bool (= .def_8 |.x{1152}|))
(define-fun .def_447 () Bool (= .def_12 |.x{1154}|))
(define-fun .def_449 () Bool (and .def_447 .def_448))
(define-fun .def_451 () Bool (and .def_449 .def_450))
(define-fun .def_453 () Bool (and .def_451 .def_452))
(define-fun .def_455 () Bool (and .def_453 .def_454))
(define-fun .def_457 () Bool (and .def_455 .def_456))
(define-fun .def_444 () Bool (= .def_26 |.x{1161}|))
(define-fun .def_442 () Bool (= .def_22 |.x{1159}|))
(define-fun .def_440 () Bool (= .def_18 |.x{1157}|))
(define-fun .def_30 () Int (! |.x{846}| :next |.x{1163}|))
(define-fun .def_437 () Bool (= .def_30 |.x{1163}|))
(define-fun .def_44 () Int (! |.x{853}| :next |.x{1170}|))
(define-fun .def_435 () Bool (= .def_44 |.x{1170}|))
(define-fun .def_301 () Bool (= |.x{1164}| 0))
(define-fun .def_405 () Bool (or .def_64 .def_301))
(define-fun .def_48 () Int (! |.x{855}| :next |.x{1172}|))
(define-fun .def_133 () Bool (= .def_48 |.x{1172}|))
(define-fun .def_46 () Int (! |.x{854}| :next |.x{1171}|))
(define-fun .def_73 () Bool (= .def_46 |.x{1171}|))
(define-fun .def_365 () Bool (and .def_73 .def_133))
(define-fun .def_52 () Int (! |.x{857}| :next |.x{1174}|))
(define-fun .def_137 () Bool (= .def_52 |.x{1174}|))
(define-fun .def_366 () Bool (and .def_137 .def_365))
(define-fun .def_58 () Int (! |.x{860}| :next |.x{1177}|))
(define-fun .def_141 () Bool (= .def_58 |.x{1177}|))
(define-fun .def_367 () Bool (and .def_141 .def_366))
(define-fun .def_406 () Bool (and .def_367 .def_405))
(define-fun .def_407 () Bool (and .def_405 .def_406))
(define-fun .def_408 () Bool (and .def_77 .def_407))
(define-fun .def_40 () Int (! |.x{851}| :next |.x{1168}|))
(define-fun .def_278 () Bool (<= 0 .def_40))
(define-fun .def_279 () Int (ite .def_278 1 0))
(define-fun .def_280 () Bool (= |.x{1176}| .def_279))
(define-fun .def_277 () Bool (= |.x{1164}| |.x{1176}|))
(define-fun .def_281 () Bool (and .def_277 .def_280))
(define-fun .def_282 () Bool (or .def_64 .def_281))
(define-fun .def_409 () Bool (and .def_282 .def_408))
(define-fun .def_177 () Bool (= .def_10 |.x{1153}|))
(define-fun .def_410 () Bool (and .def_177 .def_409))
(define-fun .def_411 () Bool (and |.x{1122}| .def_410))
(define-fun .def_401 () Bool (= |.x{1174}| 0))
(define-fun .def_399 () (Array Int Int) (store .def_10 .def_58 0))
(define-fun .def_400 () Bool (= |.x{1153}| .def_399))
(define-fun .def_402 () Bool (and .def_400 .def_401))
(define-fun .def_403 () Bool (or .def_64 .def_402))
(define-fun .def_393 () Bool (= |.x{1171}| |.x{1174}|))
(define-fun .def_394 () Bool (or |.x{1122}| .def_393))
(define-fun .def_395 () Bool (and .def_66 .def_394))
(define-fun .def_75 () Bool (= .def_64 |.x{1122}|))
(define-fun .def_396 () Bool (and .def_75 .def_395))
(define-fun .def_56 () Int (! |.x{888}| :next |.x{1176}|))
(define-fun .def_79 () Bool (= .def_56 |.x{1176}|))
(define-fun .def_397 () Bool (and .def_79 .def_396))
(define-fun .def_32 () Int (! |.x{876}| :next |.x{1164}|))
(define-fun .def_83 () Bool (= .def_32 |.x{1164}|))
(define-fun .def_398 () Bool (and .def_83 .def_397))
(define-fun .def_404 () Bool (and .def_398 .def_403))
(define-fun .def_412 () Bool (or .def_404 .def_411))
(define-fun .def_413 () Bool (and .def_70 .def_412))
(define-fun .def_414 () Bool (and .def_81 .def_413))
(define-fun .def_415 () Bool (and |.loc{8}| .def_414))
(define-fun .def_381 () Bool (and .def_64 .def_73))
(define-fun .def_382 () Bool (and .def_133 .def_381))
(define-fun .def_383 () Bool (and .def_137 .def_382))
(define-fun .def_384 () Bool (and .def_141 .def_383))
(define-fun .def_385 () Bool (and .def_66 .def_384))
(define-fun .def_386 () Bool (and .def_68 .def_385))
(define-fun .def_387 () Bool (and .def_75 .def_386))
(define-fun .def_388 () Bool (and .def_79 .def_387))
(define-fun .def_389 () Bool (and .def_83 .def_388))
(define-fun .def_85 () Bool (not |.loc{8}|))
(define-fun .def_390 () Bool (and .def_85 .def_389))
(define-fun .def_391 () Bool (and .def_87 .def_390))
(define-fun .def_392 () Bool (and .def_177 .def_391))
(define-fun .def_416 () Bool (or .def_392 .def_415))
(define-fun .def_36 () Int (! |.x{849}| :next |.x{1166}|))
(define-fun .def_340 () Real (* (/ 1 256) (to_real .def_36)))
(define-fun .def_341 () Int (to_int .def_340))
(define-fun .def_343 () Int (* (- 256) .def_341))
(define-fun .def_354 () Int (+ .def_36 .def_343))
(define-fun .def_360 () Bool (<= 48 .def_354))
(define-fun .def_376 () Bool (not .def_360))
(define-fun .def_355 () Bool (<= .def_354 57))
(define-fun .def_375 () Bool (not .def_355))
(define-fun .def_377 () Bool (or .def_375 .def_376))
(define-fun .def_378 () Bool (or .def_64 .def_377))
(define-fun .def_368 () Bool (and .def_66 .def_367))
(define-fun .def_369 () Bool (and .def_68 .def_368))
(define-fun .def_370 () Bool (and .def_75 .def_369))
(define-fun .def_371 () Bool (and .def_79 .def_370))
(define-fun .def_372 () Bool (and .def_83 .def_371))
(define-fun .def_373 () Bool (and .def_85 .def_372))
(define-fun .def_374 () Bool (and .def_87 .def_373))
(define-fun .def_379 () Bool (and .def_374 .def_378))
(define-fun .def_380 () Bool (and .def_177 .def_379))
(define-fun .def_417 () Bool (or .def_380 .def_416))
(define-fun .def_34 () Int (! |.x{848}| :next |.x{1165}|))
(define-fun .def_125 () Bool (= .def_34 |.x{1165}|))
(define-fun .def_124 () Bool (= .def_36 |.x{1166}|))
(define-fun .def_126 () Bool (and .def_124 .def_125))
(define-fun .def_418 () Bool (and .def_126 .def_417))
(define-fun .def_179 () Bool (= .def_40 |.x{1168}|))
(define-fun .def_419 () Bool (and .def_179 .def_418))
(define-fun .def_42 () Int (! |.x{852}| :next |.x{1169}|))
(define-fun .def_130 () Bool (= .def_42 |.x{1169}|))
(define-fun .def_420 () Bool (and .def_130 .def_419))
(define-fun .def_50 () Int (! |.x{856}| :next |.x{1173}|))
(define-fun .def_135 () Bool (= .def_50 |.x{1173}|))
(define-fun .def_421 () Bool (and .def_135 .def_420))
(define-fun .def_60 () Int (! |.x{861}| :next |.x{1178}|))
(define-fun .def_143 () Bool (= .def_60 |.x{1178}|))
(define-fun .def_422 () Bool (and .def_143 .def_421))
(define-fun .def_423 () Bool (and |.loc{9}| .def_422))
(define-fun .def_197 () Bool (not |.loc{7}|))
(define-fun .def_424 () Bool (and .def_197 .def_423))
(define-fun .def_350 () Int (* (- 1) |.x{1169}|))
(define-fun .def_351 () Int (+ .def_42 .def_350))
(define-fun .def_352 () Bool (= .def_351 (- 1)))
(define-fun .def_356 () Bool (and .def_352 .def_355))
(define-fun .def_344 () Int (* (- 1) |.x{1173}|))
(define-fun .def_347 () Int (+ .def_344 .def_343))
(define-fun .def_348 () Int (+ .def_36 .def_347))
(define-fun .def_349 () Bool (= .def_348 48))
(define-fun .def_357 () Bool (and .def_349 .def_356))
(define-fun .def_320 () Int (* 10 .def_40))
(define-fun .def_321 () Int (+ |.x{1173}| .def_320))
(define-fun .def_323 () Real (* (/ 1 4294967296) (to_real .def_321)))
(define-fun .def_324 () Int (to_int .def_323))
(define-fun .def_326 () Int (* 4294967296 .def_324))
(define-fun .def_327 () Int (* (- 1) .def_326))
(define-fun .def_328 () Int (+ .def_321 .def_327))
(define-fun .def_330 () Int (+ .def_328 (- 4294967296)))
(define-fun .def_332 () Int (* (- 4294967296) .def_324))
(define-fun .def_333 () Int (+ |.x{1173}| .def_332))
(define-fun .def_334 () Int (+ .def_320 .def_333))
(define-fun .def_335 () Bool (<= .def_334 2147483647))
(define-fun .def_336 () Int (ite .def_335 .def_328 .def_330))
(define-fun .def_337 () Bool (= |.x{1168}| .def_336))
(define-fun .def_358 () Bool (and .def_337 .def_357))
(define-fun .def_242 () Int (+ |.x{1169}| .def_48))
(define-fun .def_169 () (Array Int Int) (select .def_14 .def_58))
(define-fun .def_318 () Int (select .def_169 .def_242))
(define-fun .def_319 () Bool (= |.x{1166}| .def_318))
(define-fun .def_359 () Bool (and .def_319 .def_358))
(define-fun .def_361 () Bool (and .def_359 .def_360))
(define-fun .def_362 () Bool (or .def_64 .def_361))
(define-fun .def_72 () Bool (not |.loc{9}|))
(define-fun .def_74 () Bool (and .def_72 .def_73))
(define-fun .def_307 () Bool (and .def_74 .def_133))
(define-fun .def_308 () Bool (and .def_137 .def_307))
(define-fun .def_309 () Bool (and .def_141 .def_308))
(define-fun .def_310 () Bool (and .def_66 .def_309))
(define-fun .def_311 () Bool (and .def_68 .def_310))
(define-fun .def_312 () Bool (and .def_75 .def_311))
(define-fun .def_313 () Bool (and .def_79 .def_312))
(define-fun .def_314 () Bool (and .def_83 .def_313))
(define-fun .def_315 () Bool (and .def_87 .def_314))
(define-fun .def_316 () Bool (and |.loc{7}| .def_315))
(define-fun .def_317 () Bool (and |.loc{8}| .def_316))
(define-fun .def_363 () Bool (and .def_317 .def_362))
(define-fun .def_364 () Bool (and .def_177 .def_363))
(define-fun .def_425 () Bool (or .def_364 .def_424))
(define-fun .def_302 () Bool (not .def_301))
(define-fun .def_303 () Bool (or |.x{1122}| .def_302))
(define-fun .def_286 () Bool (and .def_126 .def_179))
(define-fun .def_287 () Bool (and .def_130 .def_286))
(define-fun .def_288 () Bool (and .def_73 .def_287))
(define-fun .def_289 () Bool (and .def_133 .def_288))
(define-fun .def_290 () Bool (and .def_135 .def_289))
(define-fun .def_291 () Bool (and .def_137 .def_290))
(define-fun .def_292 () Bool (and .def_141 .def_291))
(define-fun .def_293 () Bool (and .def_143 .def_292))
(define-fun .def_294 () Bool (and .def_70 .def_293))
(define-fun .def_295 () Bool (and .def_75 .def_294))
(define-fun .def_296 () Bool (and .def_77 .def_295))
(define-fun .def_297 () Bool (and .def_81 .def_296))
(define-fun .def_298 () Bool (and .def_85 .def_297))
(define-fun .def_299 () Bool (and |.loc{7}| .def_298))
(define-fun .def_300 () Bool (and |.loc{9}| .def_299))
(define-fun .def_304 () Bool (and .def_300 .def_303))
(define-fun .def_305 () Bool (and .def_282 .def_304))
(define-fun .def_306 () Bool (and .def_177 .def_305))
(define-fun .def_426 () Bool (or .def_306 .def_425))
(define-fun .def_261 () Bool (and .def_64 .def_125))
(define-fun .def_262 () Bool (and .def_124 .def_261))
(define-fun .def_263 () Bool (and .def_179 .def_262))
(define-fun .def_264 () Bool (and .def_130 .def_263))
(define-fun .def_265 () Bool (and .def_73 .def_264))
(define-fun .def_266 () Bool (and .def_133 .def_265))
(define-fun .def_267 () Bool (and .def_135 .def_266))
(define-fun .def_268 () Bool (and .def_137 .def_267))
(define-fun .def_269 () Bool (and .def_141 .def_268))
(define-fun .def_270 () Bool (and .def_143 .def_269))
(define-fun .def_271 () Bool (and .def_70 .def_270))
(define-fun .def_272 () Bool (and .def_77 .def_271))
(define-fun .def_273 () Bool (and .def_81 .def_272))
(define-fun .def_274 () Bool (and .def_85 .def_273))
(define-fun .def_275 () Bool (and |.loc{7}| .def_274))
(define-fun .def_276 () Bool (and |.loc{9}| .def_275))
(define-fun .def_283 () Bool (and .def_276 .def_282))
(define-fun .def_284 () Bool (and .def_177 .def_283))
(define-fun .def_285 () Bool (and |.x{1122}| .def_284))
(define-fun .def_427 () Bool (or .def_285 .def_426))
(define-fun .def_38 () Int (! |.x{850}| :next |.x{1167}|))
(define-fun .def_127 () Bool (= .def_38 |.x{1167}|))
(define-fun .def_428 () Bool (and .def_127 .def_427))
(define-fun .def_54 () Int (! |.x{858}| :next |.x{1175}|))
(define-fun .def_139 () Bool (= .def_54 |.x{1175}|))
(define-fun .def_429 () Bool (and .def_139 .def_428))
(define-fun .def_62 () Int (! |.x{862}| :next |.x{1179}|))
(define-fun .def_145 () Bool (= .def_62 |.x{1179}|))
(define-fun .def_430 () Bool (and .def_145 .def_429))
(define-fun .def_114 () Bool (= .def_14 |.x{1155}|))
(define-fun .def_431 () Bool (and .def_114 .def_430))
(define-fun .def_247 () Int (+ .def_48 10))
(define-fun .def_248 () (Array Int Int) (store .def_169 .def_247 0))
(define-fun .def_249 () (Array Int (Array Int Int)) (store .def_14 .def_58 .def_248))
(define-fun .def_250 () Bool (= |.x{1155}| .def_249))
(define-fun .def_243 () (Array Int Int) (select |.x{1155}| .def_58))
(define-fun .def_244 () Int (select .def_243 .def_242))
(define-fun .def_245 () Bool (= |.x{1166}| .def_244))
(define-fun .def_251 () Bool (and .def_245 .def_250))
(define-fun .def_241 () Bool (= |.x{1169}| 0))
(define-fun .def_252 () Bool (and .def_241 .def_251))
(define-fun .def_240 () Bool (= |.x{1167}| .def_58))
(define-fun .def_253 () Bool (and .def_240 .def_252))
(define-fun .def_108 () Bool (= |.x{1168}| 0))
(define-fun .def_254 () Bool (and .def_108 .def_253))
(define-fun .def_239 () Bool (= .def_48 |.x{1179}|))
(define-fun .def_255 () Bool (and .def_239 .def_254))
(define-fun .def_256 () Bool (or .def_64 .def_255))
(define-fun .def_226 () Bool (and .def_72 .def_125))
(define-fun .def_227 () Bool (and .def_73 .def_226))
(define-fun .def_228 () Bool (and .def_133 .def_227))
(define-fun .def_229 () Bool (and .def_135 .def_228))
(define-fun .def_230 () Bool (and .def_137 .def_229))
(define-fun .def_231 () Bool (and .def_141 .def_230))
(define-fun .def_232 () Bool (and .def_143 .def_231))
(define-fun .def_233 () Bool (and .def_68 .def_232))
(define-fun .def_234 () Bool (and .def_75 .def_233))
(define-fun .def_235 () Bool (and .def_77 .def_234))
(define-fun .def_236 () Bool (and .def_79 .def_235))
(define-fun .def_237 () Bool (and .def_83 .def_236))
(define-fun .def_238 () Bool (and .def_87 .def_237))
(define-fun .def_257 () Bool (and .def_238 .def_256))
(define-fun .def_258 () Bool (and |.loc{7}| .def_257))
(define-fun .def_259 () Bool (and |.loc{8}| .def_258))
(define-fun .def_260 () Bool (and .def_177 .def_259))
(define-fun .def_432 () Bool (or .def_260 .def_431))
(define-fun .def_203 () Bool (and .def_64 .def_126))
(define-fun .def_204 () Bool (and .def_127 .def_203))
(define-fun .def_205 () Bool (and .def_72 .def_204))
(define-fun .def_206 () Bool (and .def_179 .def_205))
(define-fun .def_207 () Bool (and .def_130 .def_206))
(define-fun .def_208 () Bool (and .def_73 .def_207))
(define-fun .def_209 () Bool (and .def_133 .def_208))
(define-fun .def_210 () Bool (and .def_135 .def_209))
(define-fun .def_211 () Bool (and .def_137 .def_210))
(define-fun .def_212 () Bool (and .def_139 .def_211))
(define-fun .def_213 () Bool (and .def_141 .def_212))
(define-fun .def_214 () Bool (and .def_143 .def_213))
(define-fun .def_215 () Bool (and .def_145 .def_214))
(define-fun .def_216 () Bool (and .def_66 .def_215))
(define-fun .def_217 () Bool (and .def_75 .def_216))
(define-fun .def_218 () Bool (and .def_79 .def_217))
(define-fun .def_219 () Bool (and .def_83 .def_218))
(define-fun .def_220 () Bool (and .def_81 .def_219))
(define-fun .def_221 () Bool (and .def_87 .def_220))
(define-fun .def_222 () Bool (and |.loc{8}| .def_221))
(define-fun .def_223 () Bool (and .def_197 .def_222))
(define-fun .def_224 () Bool (and .def_177 .def_223))
(define-fun .def_225 () Bool (and .def_114 .def_224))
(define-fun .def_433 () Bool (or .def_225 .def_432))
(define-fun .def_163 () Bool (<= 11 .def_40))
(define-fun .def_199 () Bool (or .def_64 .def_163))
(define-fun .def_128 () Bool (and .def_126 .def_127))
(define-fun .def_129 () Bool (and .def_72 .def_128))
(define-fun .def_180 () Bool (and .def_129 .def_179))
(define-fun .def_181 () Bool (and .def_130 .def_180))
(define-fun .def_182 () Bool (and .def_73 .def_181))
(define-fun .def_183 () Bool (and .def_133 .def_182))
(define-fun .def_184 () Bool (and .def_135 .def_183))
(define-fun .def_185 () Bool (and .def_137 .def_184))
(define-fun .def_186 () Bool (and .def_139 .def_185))
(define-fun .def_187 () Bool (and .def_141 .def_186))
(define-fun .def_188 () Bool (and .def_143 .def_187))
(define-fun .def_189 () Bool (and .def_145 .def_188))
(define-fun .def_190 () Bool (and .def_66 .def_189))
(define-fun .def_191 () Bool (and .def_75 .def_190))
(define-fun .def_192 () Bool (and .def_79 .def_191))
(define-fun .def_193 () Bool (and .def_81 .def_192))
(define-fun .def_194 () Bool (and .def_83 .def_193))
(define-fun .def_195 () Bool (and .def_87 .def_194))
(define-fun .def_196 () Bool (and |.loc{8}| .def_195))
(define-fun .def_198 () Bool (and .def_196 .def_197))
(define-fun .def_200 () Bool (and .def_198 .def_199))
(define-fun .def_201 () Bool (and .def_177 .def_200))
(define-fun .def_202 () Bool (and .def_114 .def_201))
(define-fun .def_434 () Bool (or .def_202 .def_433))
(define-fun .def_436 () Bool (and .def_434 .def_435))
(define-fun .def_438 () Bool (and .def_436 .def_437))
(define-fun .def_168 () Int (+ .def_40 .def_48))
(define-fun .def_170 () (Array Int Int) (store .def_169 .def_168 .def_30))
(define-fun .def_171 () (Array Int (Array Int Int)) (store .def_14 .def_58 .def_170))
(define-fun .def_172 () Bool (= |.x{1155}| .def_171))
(define-fun .def_166 () Bool (<= (- 128) .def_30))
(define-fun .def_164 () Bool (not .def_163))
(define-fun .def_167 () Bool (and .def_164 .def_166))
(define-fun .def_173 () Bool (and .def_167 .def_172))
(define-fun .def_162 () Bool (<= .def_30 127))
(define-fun .def_174 () Bool (and .def_162 .def_173))
(define-fun .def_175 () Bool (or .def_64 .def_174))
(define-fun .def_156 () Int (* (- 1) |.x{1168}|))
(define-fun .def_157 () Int (+ .def_40 .def_156))
(define-fun .def_158 () Bool (= .def_157 (- 1)))
(define-fun .def_159 () Bool (or |.x{1122}| .def_158))
(define-fun .def_131 () Bool (and .def_129 .def_130))
(define-fun .def_132 () Bool (and .def_73 .def_131))
(define-fun .def_134 () Bool (and .def_132 .def_133))
(define-fun .def_136 () Bool (and .def_134 .def_135))
(define-fun .def_138 () Bool (and .def_136 .def_137))
(define-fun .def_140 () Bool (and .def_138 .def_139))
(define-fun .def_142 () Bool (and .def_140 .def_141))
(define-fun .def_144 () Bool (and .def_142 .def_143))
(define-fun .def_146 () Bool (and .def_144 .def_145))
(define-fun .def_147 () Bool (and .def_66 .def_146))
(define-fun .def_148 () Bool (and .def_75 .def_147))
(define-fun .def_149 () Bool (and .def_79 .def_148))
(define-fun .def_150 () Bool (and .def_81 .def_149))
(define-fun .def_151 () Bool (and .def_83 .def_150))
(define-fun .def_152 () Bool (and .def_85 .def_151))
(define-fun .def_153 () Bool (and .def_87 .def_152))
(define-fun .def_154 () Bool (and |.loc{7}| .def_153))
(define-fun .def_160 () Bool (and .def_154 .def_159))
(define-fun .def_176 () Bool (and .def_160 .def_175))
(define-fun .def_178 () Bool (and .def_176 .def_177))
(define-fun .def_439 () Bool (or .def_178 .def_438))
(define-fun .def_441 () Bool (and .def_439 .def_440))
(define-fun .def_443 () Bool (and .def_441 .def_442))
(define-fun .def_445 () Bool (and .def_443 .def_444))
(define-fun .def_119 () Bool (= |.x{1161}| 0))
(define-fun .def_118 () Bool (= |.x{1157}| 0))
(define-fun .def_120 () Bool (and .def_118 .def_119))
(define-fun .def_116 () (Array Int Int) (store .def_10 0 0))
(define-fun .def_117 () Bool (= |.x{115}| .def_116))
(define-fun .def_121 () Bool (and .def_117 .def_120))
(define-fun .def_122 () Bool (or .def_64 .def_121))
(define-fun .def_103 () (Array Int Int) (store .def_22 |.x{1177}| 11))
(define-fun .def_104 () Bool (= |.x{1159}| .def_103))
(define-fun .def_100 () Bool (<= |.x{1152}| |.x{1177}|))
(define-fun .def_101 () Bool (not .def_100))
(define-fun .def_105 () Bool (and .def_101 .def_104))
(define-fun .def_98 () Bool (= |.x{1177}| 0))
(define-fun .def_99 () Bool (not .def_98))
(define-fun .def_106 () Bool (and .def_99 .def_105))
(define-fun .def_97 () Bool (= |.x{1172}| 0))
(define-fun .def_107 () Bool (and .def_97 .def_106))
(define-fun .def_109 () Bool (and .def_107 .def_108))
(define-fun .def_95 () (Array Int Int) (store |.x{115}| |.x{1177}| 1))
(define-fun .def_96 () Bool (= |.x{1153}| .def_95))
(define-fun .def_110 () Bool (and .def_96 .def_109))
(define-fun .def_92 () Int (select |.x{115}| |.x{1177}|))
(define-fun .def_93 () Bool (= .def_92 0))
(define-fun .def_111 () Bool (and .def_93 .def_110))
(define-fun .def_112 () Bool (or |.x{1122}| .def_111))
(define-fun .def_76 () Bool (and .def_74 .def_75))
(define-fun .def_78 () Bool (and .def_76 .def_77))
(define-fun .def_80 () Bool (and .def_78 .def_79))
(define-fun .def_82 () Bool (and .def_80 .def_81))
(define-fun .def_84 () Bool (and .def_82 .def_83))
(define-fun .def_86 () Bool (and .def_84 .def_85))
(define-fun .def_88 () Bool (and .def_86 .def_87))
(define-fun .def_89 () Bool (and |.loc{7}| .def_88))
(define-fun .def_113 () Bool (and .def_89 .def_112))
(define-fun .def_115 () Bool (and .def_113 .def_114))
(define-fun .def_123 () Bool (and .def_115 .def_122))
(define-fun .def_446 () Bool (or .def_123 .def_445))
(define-fun .def_458 () Bool (! (and .def_446 .def_457) :trans true))
(define-fun .def_473 () Bool (and .def_68 .def_77))
(define-fun .def_474 () Bool (and .def_70 .def_473))
(define-fun .def_475 () Bool (and .def_64 .def_474))
(define-fun .def_476 () Bool (! (not .def_475) :invar-property 0))
(assert true)
